NAME : tsp25_8.151.tour
COMMENT : Length = 151
COMMENT : Found by LKH [Keld Helsgaun]
TYPE : TOUR
DIMENSION : 25
TOUR_SECTION
1
18
15
16
9
17
6
2
21
5
23
3
11
14
25
8
20
12
13
7
24
10
4
22
19
-1
EOF
